proyfinal/src/viki/013/experimentInOfficeAgust.take6.output/90173e5c-fc26-4ddf-9daa-d88218fa9a96.als.dat
{'cnf.clauses': '118081',
 'cnf.totvars': '69608',
 'conflict literals': '17',
 'conflicts': '11',
 'decisions': '10457',
 'memused.mb': '16.34',
 'outcome': 'UNSAT',
 'propagations': '41896',
 'restarts': '1',
 'solver.msecs': 35,
 'task.msecs': 91}
