proyfinal/src/viki/013/experimentInOfficeAgust.take6.output/90173e5c-fc26-4ddf-9daa-d88218fa9a96.als.out
Reading from standard input... Use '--help' for help.
============================[ Problem Statistics ]=============================
|                                                                             |
|  Number of variables:         69608                                         |
|  Number of clauses:          118081                                         |
|  Parse time:                   0.03 s                                       |
|                                                                             |
============================[ Search Statistics ]==============================
| Conflicts |          ORIGINAL         |          LEARNT          | Progress |
|           |    Vars  Clauses Literals |    Limit  Clauses Lit/Cl |          |
===============================================================================
===============================================================================
restarts              : 1
conflicts             : 11             (313 /sec)
decisions             : 10457          (0.00 % random) (297615 /sec)
propagations          : 41896          (1192395 /sec)
conflict literals     : 17             (0.00 % deleted)
Memory used           : 16.34 MB
CPU time              : 0.035136 s

UNSATISFIABLE
